(set-info :source |printed by MathSAT|)
(declare-fun call_Sofar.flby () Bool)
(declare-fun param_e02 () Bool)
(declare-fun call__DRAGON_.ite27 () Int)
(declare-fun call__DRAGON_.erreur () Bool)
(declare-fun call__DRAGON_.ite50 () Int)
(declare-fun call__DRAGON_.ite31 () Int)
(declare-fun call__DRAGON_.ite41 () Int)
(declare-fun call__DRAGON_.ite13 () Int)
(declare-fun param_e10 () Bool)
(declare-fun call__DRAGON_.ite59 () Int)
(declare-fun call__DRAGON_.ite2 () Int)
(declare-fun call__DRAGON_.ite9 () Int)
(declare-fun call__DRAGON_.ite46 () Int)
(declare-fun call_Sofar.Sofar () Bool)
(declare-fun call__DRAGON_.ite54 () Int)
(declare-fun call__DRAGON_.ite18 () Int)
(declare-fun call__DRAGON_.ite39 () Int)
(declare-fun call__DRAGON_.ite () Bool)
(declare-fun param_e08 () Bool)
(declare-fun call__DRAGON_.ite61 () Int)
(declare-fun call__DRAGON_.ite14 () Int)
(declare-fun call__DRAGON_.ite42 () Int)
(declare-fun call_First.First () Int)
(declare-fun call__DRAGON_.g08 () Bool)
(declare-fun call__DRAGON_.ite55 () Int)
(declare-fun call__DRAGON_.dirty () Int)
(declare-fun call__DRAGON_.g02 () Bool)
(declare-fun call__DRAGON_.exclusive () Int)
(declare-fun call__DRAGON_.ite32 () Int)
(declare-fun call_excludes12.excludes () Bool)
(declare-fun call__DRAGON_.flby6 () Int)
(declare-fun call__DRAGON_.ite43 () Int)
(declare-fun param_e11 () Bool)
(declare-fun call__DRAGON_.ite53 () Int)
(declare-fun call__DRAGON_.ite58 () Int)
(declare-fun call__DRAGON_.flby5 () Int)
(declare-fun call__DRAGON_.mem_init () Int)
(declare-fun call__DRAGON_.ite6 () Int)
(declare-fun shared_dirty () Int)
(declare-fun param_e05 () Bool)
(declare-fun call__DRAGON_.ite8 () Int)
(declare-fun call__DRAGON_.ite20 () Int)
(declare-fun erreur () Bool)
(declare-fun call__DRAGON_.ite11 () Int)
(declare-fun call__DRAGON_.ite37 () Int)
(declare-fun exclusive () Int)
(declare-fun call__DRAGON_.invalid () Int)
(declare-fun call__DRAGON_.ite24 () Int)
(declare-fun call__DRAGON_.ite60 () Int)
(declare-fun call__DRAGON_.shared () Int)
(declare-fun call__DRAGON_.ite15 () Int)
(declare-fun param_e03 () Bool)
(declare-fun call__DRAGON_.ite36 () Int)
(declare-fun call__DRAGON_.ite5 () Int)
(declare-fun call__DRAGON_.ite40 () Int)
(declare-fun call__DRAGON_.flby () Int)
(declare-fun call__DRAGON_.ite52 () Int)
(declare-fun dirty () Int)
(declare-fun call__DRAGON_.ite56 () Int)
(declare-fun call__DRAGON_.ite45 () Int)
(declare-fun call__DRAGON_.ite28 () Int)
(declare-fun param_e01 () Bool)
(declare-fun call__DRAGON_.ite23 () Int)
(declare-fun call__DRAGON_.ite30 () Int)
(declare-fun call__DRAGON_.ite51 () Int)
(declare-fun call__DRAGON_.ite4 () Int)
(declare-fun call__DRAGON_.ite19 () Int)
(declare-fun call__DRAGON_.shared_dirty () Int)
(declare-fun call__DRAGON_.ite49 () Int)
(declare-fun call__DRAGON_.ite12 () Int)
(declare-fun param_init_invalid () Int)
(declare-fun call__DRAGON_.ite38 () Int)
(declare-fun _OK_ () Bool)
(declare-fun call__DRAGON_.flby2 () Int)
(declare-fun param_e06 () Bool)
(declare-fun invalid () Int)
(declare-fun call__DRAGON_.ite25 () Int)
(declare-fun param_e09 () Bool)
(declare-fun shared () Int)
(declare-fun param_e12 () Bool)
(declare-fun call_First.flby () Int)
(declare-fun call__DRAGON_.ite22 () Int)
(declare-fun param_e04 () Bool)
(declare-fun call__DRAGON_.ite48 () Int)
(declare-fun call__DRAGON_.ite44 () Int)
(declare-fun call__DRAGON_.ite35 () Int)
(declare-fun call__DRAGON_.ite3 () Int)
(declare-fun call__DRAGON_.g04 () Bool)
(declare-fun call__DRAGON_.ite29 () Int)
(declare-fun call__DRAGON_.ite26 () Int)
(declare-fun call__DRAGON_.flby4 () Int)
(declare-fun call__DRAGON_.g06 () Bool)
(declare-fun call__DRAGON_.ite16 () Int)
(declare-fun call__DRAGON_.ite10 () Int)
(declare-fun call__DRAGON_.ite17 () Int)
(declare-fun call__DRAGON_.ite7 () Int)
(declare-fun env () Bool)
(declare-fun call__DRAGON_.ite21 () Int)
(declare-fun call__DRAGON_.ite47 () Int)
(declare-fun call__DRAGON_.flby3 () Int)
(declare-fun param_e07 () Bool)
(declare-fun call__DRAGON_.ite33 () Int)
(declare-fun call__DRAGON_.ite57 () Int)
(declare-fun call__DRAGON_.g05 () Bool)
(declare-fun call__DRAGON_.ite34 () Int)
(define-fun .def_1735 () Bool (= call_First.flby call_First.First))
(define-fun .def_1733 () Bool (= call_Sofar.flby call_Sofar.Sofar))
(define-fun .def_1542 () Bool (not param_e02))
(define-fun .def_1523 () Bool (not param_e01))
(define-fun .def_1631 () Bool (and .def_1523 .def_1542))
(define-fun .def_1583 () Bool (not param_e03))
(define-fun .def_1632 () Bool (and .def_1583 .def_1631))
(define-fun .def_1599 () Bool (not param_e04))
(define-fun .def_1633 () Bool (and .def_1599 .def_1632))
(define-fun .def_1392 () Bool (not param_e05))
(define-fun .def_1634 () Bool (and .def_1392 .def_1633))
(define-fun .def_1374 () Bool (not param_e06))
(define-fun .def_1635 () Bool (and .def_1374 .def_1634))
(define-fun .def_1409 () Bool (not param_e07))
(define-fun .def_1636 () Bool (and .def_1409 .def_1635))
(define-fun .def_1428 () Bool (not param_e08))
(define-fun .def_1637 () Bool (and .def_1428 .def_1636))
(define-fun .def_1267 () Bool (not param_e09))
(define-fun .def_1638 () Bool (and .def_1267 .def_1637))
(define-fun .def_1273 () Bool (not param_e10))
(define-fun .def_1639 () Bool (and .def_1273 .def_1638))
(define-fun .def_1280 () Bool (not param_e11))
(define-fun .def_1640 () Bool (and .def_1280 .def_1639))
(define-fun .def_1287 () Bool (not param_e12))
(define-fun .def_1718 () Bool (and .def_1287 .def_1640))
(define-fun .def_1707 () Bool (and param_e01 .def_1542))
(define-fun .def_1708 () Bool (and .def_1583 .def_1707))
(define-fun .def_1709 () Bool (and .def_1599 .def_1708))
(define-fun .def_1710 () Bool (and .def_1392 .def_1709))
(define-fun .def_1711 () Bool (and .def_1374 .def_1710))
(define-fun .def_1712 () Bool (and .def_1409 .def_1711))
(define-fun .def_1713 () Bool (and .def_1428 .def_1712))
(define-fun .def_1714 () Bool (and .def_1267 .def_1713))
(define-fun .def_1715 () Bool (and .def_1273 .def_1714))
(define-fun .def_1716 () Bool (and .def_1280 .def_1715))
(define-fun .def_1717 () Bool (and .def_1287 .def_1716))
(define-fun .def_1719 () Bool (or .def_1717 .def_1718))
(define-fun .def_1696 () Bool (and .def_1523 param_e02))
(define-fun .def_1697 () Bool (and .def_1583 .def_1696))
(define-fun .def_1698 () Bool (and .def_1599 .def_1697))
(define-fun .def_1699 () Bool (and .def_1392 .def_1698))
(define-fun .def_1700 () Bool (and .def_1374 .def_1699))
(define-fun .def_1701 () Bool (and .def_1409 .def_1700))
(define-fun .def_1702 () Bool (and .def_1428 .def_1701))
(define-fun .def_1703 () Bool (and .def_1267 .def_1702))
(define-fun .def_1704 () Bool (and .def_1273 .def_1703))
(define-fun .def_1705 () Bool (and .def_1280 .def_1704))
(define-fun .def_1706 () Bool (and .def_1287 .def_1705))
(define-fun .def_1720 () Bool (or .def_1706 .def_1719))
(define-fun .def_1686 () Bool (and param_e03 .def_1631))
(define-fun .def_1687 () Bool (and .def_1599 .def_1686))
(define-fun .def_1688 () Bool (and .def_1392 .def_1687))
(define-fun .def_1689 () Bool (and .def_1374 .def_1688))
(define-fun .def_1690 () Bool (and .def_1409 .def_1689))
(define-fun .def_1691 () Bool (and .def_1428 .def_1690))
(define-fun .def_1692 () Bool (and .def_1267 .def_1691))
(define-fun .def_1693 () Bool (and .def_1273 .def_1692))
(define-fun .def_1694 () Bool (and .def_1280 .def_1693))
(define-fun .def_1695 () Bool (and .def_1287 .def_1694))
(define-fun .def_1721 () Bool (or .def_1695 .def_1720))
(define-fun .def_1677 () Bool (and param_e04 .def_1632))
(define-fun .def_1678 () Bool (and .def_1392 .def_1677))
(define-fun .def_1679 () Bool (and .def_1374 .def_1678))
(define-fun .def_1680 () Bool (and .def_1409 .def_1679))
(define-fun .def_1681 () Bool (and .def_1428 .def_1680))
(define-fun .def_1682 () Bool (and .def_1267 .def_1681))
(define-fun .def_1683 () Bool (and .def_1273 .def_1682))
(define-fun .def_1684 () Bool (and .def_1280 .def_1683))
(define-fun .def_1685 () Bool (and .def_1287 .def_1684))
(define-fun .def_1722 () Bool (or .def_1685 .def_1721))
(define-fun .def_1669 () Bool (and param_e05 .def_1633))
(define-fun .def_1670 () Bool (and .def_1374 .def_1669))
(define-fun .def_1671 () Bool (and .def_1409 .def_1670))
(define-fun .def_1672 () Bool (and .def_1428 .def_1671))
(define-fun .def_1673 () Bool (and .def_1267 .def_1672))
(define-fun .def_1674 () Bool (and .def_1273 .def_1673))
(define-fun .def_1675 () Bool (and .def_1280 .def_1674))
(define-fun .def_1676 () Bool (and .def_1287 .def_1675))
(define-fun .def_1723 () Bool (or .def_1676 .def_1722))
(define-fun .def_1662 () Bool (and param_e06 .def_1634))
(define-fun .def_1663 () Bool (and .def_1409 .def_1662))
(define-fun .def_1664 () Bool (and .def_1428 .def_1663))
(define-fun .def_1665 () Bool (and .def_1267 .def_1664))
(define-fun .def_1666 () Bool (and .def_1273 .def_1665))
(define-fun .def_1667 () Bool (and .def_1280 .def_1666))
(define-fun .def_1668 () Bool (and .def_1287 .def_1667))
(define-fun .def_1724 () Bool (or .def_1668 .def_1723))
(define-fun .def_1656 () Bool (and param_e07 .def_1635))
(define-fun .def_1657 () Bool (and .def_1428 .def_1656))
(define-fun .def_1658 () Bool (and .def_1267 .def_1657))
(define-fun .def_1659 () Bool (and .def_1273 .def_1658))
(define-fun .def_1660 () Bool (and .def_1280 .def_1659))
(define-fun .def_1661 () Bool (and .def_1287 .def_1660))
(define-fun .def_1725 () Bool (or .def_1661 .def_1724))
(define-fun .def_1651 () Bool (and param_e08 .def_1636))
(define-fun .def_1652 () Bool (and .def_1267 .def_1651))
(define-fun .def_1653 () Bool (and .def_1273 .def_1652))
(define-fun .def_1654 () Bool (and .def_1280 .def_1653))
(define-fun .def_1655 () Bool (and .def_1287 .def_1654))
(define-fun .def_1726 () Bool (or .def_1655 .def_1725))
(define-fun .def_1647 () Bool (and param_e09 .def_1637))
(define-fun .def_1648 () Bool (and .def_1273 .def_1647))
(define-fun .def_1649 () Bool (and .def_1280 .def_1648))
(define-fun .def_1650 () Bool (and .def_1287 .def_1649))
(define-fun .def_1727 () Bool (or .def_1650 .def_1726))
(define-fun .def_1644 () Bool (and param_e10 .def_1638))
(define-fun .def_1645 () Bool (and .def_1280 .def_1644))
(define-fun .def_1646 () Bool (and .def_1287 .def_1645))
(define-fun .def_1728 () Bool (or .def_1646 .def_1727))
(define-fun .def_1642 () Bool (and param_e11 .def_1639))
(define-fun .def_1643 () Bool (and .def_1287 .def_1642))
(define-fun .def_1729 () Bool (or .def_1643 .def_1728))
(define-fun .def_1641 () Bool (and param_e12 .def_1640))
(define-fun .def_1730 () Bool (or .def_1641 .def_1729))
(define-fun .def_1731 () Bool (= call_excludes12.excludes .def_1730))
(define-fun .def_1629 () Bool (= call__DRAGON_.mem_init call__DRAGON_.flby))
(define-fun .def_1627 () Bool (= call__DRAGON_.erreur call__DRAGON_.ite))
(define-fun .def_1625 () Bool (= call__DRAGON_.flby6 call__DRAGON_.invalid))
(define-fun .def_1623 () Bool (= call__DRAGON_.flby5 call__DRAGON_.dirty))
(define-fun .def_1621 () Bool (= call__DRAGON_.flby4 call__DRAGON_.shared_dirty))
(define-fun .def_1619 () Bool (= call__DRAGON_.flby3 call__DRAGON_.shared))
(define-fun .def_1616 () Bool (= call__DRAGON_.flby2 call__DRAGON_.exclusive))
(define-fun .def_1611 () Bool (<= 2 call__DRAGON_.exclusive))
(define-fun .def_1613 () Bool (not .def_1611))
(define-fun .def_1614 () Bool (or call__DRAGON_.ite .def_1613))
(define-fun .def_1610 () Bool (not call__DRAGON_.ite))
(define-fun .def_1612 () Bool (or .def_1610 .def_1611))
(define-fun .def_1615 () Bool (and .def_1612 .def_1614))
(define-fun .def_1617 () Bool (and .def_1615 .def_1616))
(define-fun .def_1605 () Bool (= call__DRAGON_.ite29 call__DRAGON_.ite30))
(define-fun .def_1606 () Bool (or param_e04 .def_1605))
(define-fun .def_1602 () Bool (= call__DRAGON_.ite23 call__DRAGON_.ite30))
(define-fun .def_1603 () Bool (or .def_1599 .def_1602))
(define-fun .def_1598 () Bool (= call__DRAGON_.ite43 call__DRAGON_.ite34))
(define-fun .def_1600 () Bool (or .def_1598 .def_1599))
(define-fun .def_1594 () Bool (= call__DRAGON_.ite42 call__DRAGON_.ite43))
(define-fun .def_1596 () Bool (or .def_1594 param_e04))
(define-fun .def_1601 () Bool (and .def_1596 .def_1600))
(define-fun .def_1604 () Bool (and .def_1601 .def_1603))
(define-fun .def_1607 () Bool (and .def_1604 .def_1606))
(define-fun .def_1590 () Bool (= call__DRAGON_.ite8 call__DRAGON_.ite9))
(define-fun .def_1591 () Bool (or param_e03 .def_1590))
(define-fun .def_1587 () Bool (= call__DRAGON_.ite9 call__DRAGON_.ite4))
(define-fun .def_1588 () Bool (or .def_1583 .def_1587))
(define-fun .def_1582 () Bool (= call__DRAGON_.ite44 call__DRAGON_.ite33))
(define-fun .def_1584 () Bool (or .def_1582 .def_1583))
(define-fun .def_1578 () Bool (= call__DRAGON_.ite44 call__DRAGON_.ite43))
(define-fun .def_1580 () Bool (or .def_1578 param_e03))
(define-fun .def_1585 () Bool (and .def_1580 .def_1584))
(define-fun .def_1589 () Bool (and .def_1585 .def_1588))
(define-fun .def_1592 () Bool (and .def_1589 .def_1591))
(define-fun .def_1573 () Bool (= call__DRAGON_.ite31 call__DRAGON_.ite30))
(define-fun .def_1574 () Bool (or param_e02 .def_1573))
(define-fun .def_1569 () Bool (= call__DRAGON_.ite22 call__DRAGON_.ite31))
(define-fun .def_1570 () Bool (or .def_1542 .def_1569))
(define-fun .def_1564 () Bool (= call__DRAGON_.ite20 call__DRAGON_.ite21))
(define-fun .def_1565 () Bool (or param_e02 .def_1564))
(define-fun .def_1561 () Bool (= call__DRAGON_.ite12 call__DRAGON_.ite21))
(define-fun .def_1562 () Bool (or .def_1542 .def_1561))
(define-fun .def_1556 () Bool (= call__DRAGON_.ite10 call__DRAGON_.ite9))
(define-fun .def_1557 () Bool (or param_e02 .def_1556))
(define-fun .def_1552 () Bool (= call__DRAGON_.ite3 call__DRAGON_.ite10))
(define-fun .def_1553 () Bool (or .def_1542 .def_1552))
(define-fun .def_1549 () Bool (= call__DRAGON_.ite59 call__DRAGON_.ite60))
(define-fun .def_1550 () Bool (or param_e02 .def_1549))
(define-fun .def_1546 () Bool (= call__DRAGON_.ite60 call__DRAGON_.ite47))
(define-fun .def_1547 () Bool (or .def_1542 .def_1546))
(define-fun .def_1541 () Bool (= call__DRAGON_.ite32 call__DRAGON_.ite45))
(define-fun .def_1543 () Bool (or .def_1541 .def_1542))
(define-fun .def_1538 () Bool (= call__DRAGON_.ite45 call__DRAGON_.ite44))
(define-fun .def_1540 () Bool (or .def_1538 param_e02))
(define-fun .def_1544 () Bool (and .def_1540 .def_1543))
(define-fun .def_1548 () Bool (and .def_1544 .def_1547))
(define-fun .def_1551 () Bool (and .def_1548 .def_1550))
(define-fun .def_1554 () Bool (and .def_1551 .def_1553))
(define-fun .def_1558 () Bool (and .def_1554 .def_1557))
(define-fun .def_1563 () Bool (and .def_1558 .def_1562))
(define-fun .def_1566 () Bool (and .def_1563 .def_1565))
(define-fun .def_1571 () Bool (and .def_1566 .def_1570))
(define-fun .def_1575 () Bool (and .def_1571 .def_1574))
(define-fun .def_1532 () Bool (= call__DRAGON_.ite11 call__DRAGON_.ite10))
(define-fun .def_1533 () Bool (or param_e01 .def_1532))
(define-fun .def_1528 () Bool (= call__DRAGON_.ite2 call__DRAGON_.ite11))
(define-fun .def_1529 () Bool (or .def_1523 .def_1528))
(define-fun .def_1522 () Bool (= call__DRAGON_.ite61 call__DRAGON_.ite46))
(define-fun .def_1524 () Bool (or .def_1522 .def_1523))
(define-fun .def_1518 () Bool (= call__DRAGON_.ite61 call__DRAGON_.ite60))
(define-fun .def_1520 () Bool (or .def_1518 param_e01))
(define-fun .def_1525 () Bool (and .def_1520 .def_1524))
(define-fun .def_1530 () Bool (and .def_1525 .def_1529))
(define-fun .def_1534 () Bool (and .def_1530 .def_1533))
(define-fun .def_1512 () Bool (= call__DRAGON_.ite55 call__DRAGON_.ite52))
(define-fun .def_1513 () Bool (or .def_1280 .def_1512))
(define-fun .def_1509 () Bool (= call__DRAGON_.ite54 call__DRAGON_.ite55))
(define-fun .def_1510 () Bool (or param_e11 .def_1509))
(define-fun .def_1514 () Bool (and .def_1510 .def_1513))
(define-fun .def_1505 () Bool (= call__DRAGON_.ite56 call__DRAGON_.ite51))
(define-fun .def_1506 () Bool (or .def_1273 .def_1505))
(define-fun .def_1502 () Bool (= call__DRAGON_.ite56 call__DRAGON_.ite55))
(define-fun .def_1503 () Bool (or param_e10 .def_1502))
(define-fun .def_1507 () Bool (and .def_1503 .def_1506))
(define-fun .def_1497 () Bool (= call__DRAGON_.ite57 call__DRAGON_.ite50))
(define-fun .def_1498 () Bool (or .def_1267 .def_1497))
(define-fun .def_1494 () Bool (= call__DRAGON_.ite57 call__DRAGON_.ite56))
(define-fun .def_1495 () Bool (or param_e09 .def_1494))
(define-fun .def_1499 () Bool (and .def_1495 .def_1498))
(define-fun .def_1491 () Bool (= env call_Sofar.Sofar))
(define-fun .def_1488 () Bool (= erreur call__DRAGON_.erreur))
(define-fun .def_1484 () Bool (= invalid call__DRAGON_.invalid))
(define-fun .def_1480 () Bool (= dirty call__DRAGON_.dirty))
(define-fun .def_1477 () Bool (= shared_dirty call__DRAGON_.shared_dirty))
(define-fun .def_1473 () Bool (= shared call__DRAGON_.shared))
(define-fun .def_1469 () Bool (= exclusive call__DRAGON_.exclusive))
(define-fun .def_1463 () Bool (<= dirty call_First.First))
(define-fun .def_1460 () Bool (not env))
(define-fun .def_1464 () Bool (or .def_1460 .def_1463))
(define-fun .def_1465 () Bool (= _OK_ .def_1464))
(define-fun .def_1454 () Bool (= call__DRAGON_.ite39 call__DRAGON_.ite40))
(define-fun .def_1455 () Bool (or param_e08 .def_1454))
(define-fun .def_1451 () Bool (= call__DRAGON_.ite37 call__DRAGON_.ite40))
(define-fun .def_1452 () Bool (or .def_1428 .def_1451))
(define-fun .def_1448 () Bool (= call__DRAGON_.ite27 call__DRAGON_.ite28))
(define-fun .def_1449 () Bool (or param_e08 .def_1448))
(define-fun .def_1445 () Bool (= call__DRAGON_.ite25 call__DRAGON_.ite28))
(define-fun .def_1446 () Bool (or .def_1428 .def_1445))
(define-fun .def_1442 () Bool (= call__DRAGON_.ite17 call__DRAGON_.ite18))
(define-fun .def_1443 () Bool (or param_e08 .def_1442))
(define-fun .def_1439 () Bool (= call__DRAGON_.ite18 call__DRAGON_.ite15))
(define-fun .def_1440 () Bool (or .def_1428 .def_1439))
(define-fun .def_1435 () Bool (= call__DRAGON_.ite7 call__DRAGON_.ite8))
(define-fun .def_1436 () Bool (or param_e08 .def_1435))
(define-fun .def_1432 () Bool (= call__DRAGON_.ite5 call__DRAGON_.ite8))
(define-fun .def_1433 () Bool (or .def_1428 .def_1432))
(define-fun .def_1427 () Bool (= call__DRAGON_.ite58 call__DRAGON_.ite49))
(define-fun .def_1429 () Bool (or .def_1427 .def_1428))
(define-fun .def_1423 () Bool (= call__DRAGON_.ite58 call__DRAGON_.ite57))
(define-fun .def_1425 () Bool (or .def_1423 param_e08))
(define-fun .def_1430 () Bool (and .def_1425 .def_1429))
(define-fun .def_1434 () Bool (and .def_1430 .def_1433))
(define-fun .def_1437 () Bool (and .def_1434 .def_1436))
(define-fun .def_1441 () Bool (and .def_1437 .def_1440))
(define-fun .def_1444 () Bool (and .def_1441 .def_1443))
(define-fun .def_1447 () Bool (and .def_1444 .def_1446))
(define-fun .def_1450 () Bool (and .def_1447 .def_1449))
(define-fun .def_1453 () Bool (and .def_1450 .def_1452))
(define-fun .def_1456 () Bool (and .def_1453 .def_1455))
(define-fun .def_1418 () Bool (= call__DRAGON_.ite59 call__DRAGON_.ite58))
(define-fun .def_1419 () Bool (or param_e07 .def_1418))
(define-fun .def_1414 () Bool (= call__DRAGON_.ite48 call__DRAGON_.ite59))
(define-fun .def_1415 () Bool (or .def_1409 .def_1414))
(define-fun .def_1408 () Bool (= call__DRAGON_.ite41 call__DRAGON_.ite36))
(define-fun .def_1410 () Bool (or .def_1408 .def_1409))
(define-fun .def_1404 () Bool (= call__DRAGON_.ite41 call__DRAGON_.ite40))
(define-fun .def_1406 () Bool (or .def_1404 param_e07))
(define-fun .def_1411 () Bool (and .def_1406 .def_1410))
(define-fun .def_1416 () Bool (and .def_1411 .def_1415))
(define-fun .def_1420 () Bool (and .def_1416 .def_1419))
(define-fun .def_1399 () Bool (= call__DRAGON_.ite19 call__DRAGON_.ite20))
(define-fun .def_1400 () Bool (or param_e05 .def_1399))
(define-fun .def_1396 () Bool (= call__DRAGON_.ite13 call__DRAGON_.ite20))
(define-fun .def_1397 () Bool (or .def_1392 .def_1396))
(define-fun .def_1391 () Bool (= call__DRAGON_.ite42 call__DRAGON_.ite35))
(define-fun .def_1393 () Bool (or .def_1391 .def_1392))
(define-fun .def_1387 () Bool (= call__DRAGON_.ite41 call__DRAGON_.ite42))
(define-fun .def_1389 () Bool (or .def_1387 param_e05))
(define-fun .def_1394 () Bool (and .def_1389 .def_1393))
(define-fun .def_1398 () Bool (and .def_1394 .def_1397))
(define-fun .def_1401 () Bool (and .def_1398 .def_1400))
(define-fun .def_1382 () Bool (= call__DRAGON_.ite29 call__DRAGON_.ite28))
(define-fun .def_1383 () Bool (or param_e06 .def_1382))
(define-fun .def_1378 () Bool (= call__DRAGON_.ite24 call__DRAGON_.ite29))
(define-fun .def_1379 () Bool (or .def_1374 .def_1378))
(define-fun .def_1373 () Bool (= call__DRAGON_.ite19 call__DRAGON_.ite14))
(define-fun .def_1375 () Bool (or .def_1373 .def_1374))
(define-fun .def_1369 () Bool (= call__DRAGON_.ite19 call__DRAGON_.ite18))
(define-fun .def_1371 () Bool (or .def_1369 param_e06))
(define-fun .def_1376 () Bool (and .def_1371 .def_1375))
(define-fun .def_1380 () Bool (and .def_1376 .def_1379))
(define-fun .def_1384 () Bool (and .def_1380 .def_1383))
(define-fun .def_1402 () Bool (and .def_1384 .def_1401))
(define-fun .def_1421 () Bool (and .def_1402 .def_1420))
(define-fun .def_1457 () Bool (and .def_1421 .def_1456))
(define-fun .def_1466 () Bool (and .def_1457 .def_1465))
(define-fun .def_1470 () Bool (and .def_1466 .def_1469))
(define-fun .def_1474 () Bool (and .def_1470 .def_1473))
(define-fun .def_1478 () Bool (and .def_1474 .def_1477))
(define-fun .def_1481 () Bool (and .def_1478 .def_1480))
(define-fun .def_1485 () Bool (and .def_1481 .def_1484))
(define-fun .def_1489 () Bool (and .def_1485 .def_1488))
(define-fun .def_1492 () Bool (and .def_1489 .def_1491))
(define-fun .def_1500 () Bool (and .def_1492 .def_1499))
(define-fun .def_1508 () Bool (and .def_1500 .def_1507))
(define-fun .def_1515 () Bool (and .def_1508 .def_1514))
(define-fun .def_1535 () Bool (and .def_1515 .def_1534))
(define-fun .def_1576 () Bool (and .def_1535 .def_1575))
(define-fun .def_1593 () Bool (and .def_1576 .def_1592))
(define-fun .def_1608 () Bool (and .def_1593 .def_1607))
(define-fun .def_1618 () Bool (and .def_1608 .def_1617))
(define-fun .def_1620 () Bool (and .def_1618 .def_1619))
(define-fun .def_1622 () Bool (and .def_1620 .def_1621))
(define-fun .def_1624 () Bool (and .def_1622 .def_1623))
(define-fun .def_1626 () Bool (and .def_1624 .def_1625))
(define-fun .def_1628 () Bool (and .def_1626 .def_1627))
(define-fun .def_1630 () Bool (and .def_1628 .def_1629))
(define-fun .def_1732 () Bool (and .def_1630 .def_1731))
(define-fun .def_1734 () Bool (and .def_1732 .def_1733))
(define-fun .def_1736 () Bool (and .def_1734 .def_1735))
(define-fun .def_1365 () Bool (= param_init_invalid call_First.flby))
(define-fun .def_1357 () Bool (<= param_init_invalid 0))
(define-fun .def_1358 () Bool (not .def_1357))
(define-fun .def_1360 () Bool (and .def_1358 call_excludes12.excludes))
(define-fun .def_1362 () Bool (= .def_1360 call_Sofar.flby))
(define-fun .def_1355 () Bool (= call__DRAGON_.flby4 0))
(define-fun .def_1352 () Bool (= call__DRAGON_.flby3 0))
(define-fun .def_1349 () Bool (= call__DRAGON_.flby2 0))
(define-fun .def_1346 () Bool (= param_init_invalid call__DRAGON_.flby))
(define-fun .def_1340 () Bool (= call__DRAGON_.ite37 0))
(define-fun .def_1333 () Bool (not call__DRAGON_.g08))
(define-fun .def_1341 () Bool (or .def_1333 .def_1340))
(define-fun .def_1336 () Bool (= call__DRAGON_.ite5 0))
(define-fun .def_1337 () Bool (or .def_1333 .def_1336))
(define-fun .def_1331 () Bool (= call__DRAGON_.ite25 1))
(define-fun .def_1334 () Bool (or .def_1331 .def_1333))
(define-fun .def_1338 () Bool (and .def_1334 .def_1337))
(define-fun .def_1342 () Bool (and .def_1338 .def_1341))
(define-fun .def_1327 () Bool (= call__DRAGON_.ite24 1))
(define-fun .def_1325 () Bool (not call__DRAGON_.g06))
(define-fun .def_1328 () Bool (or .def_1325 .def_1327))
(define-fun .def_1321 () Bool (= call__DRAGON_.ite13 0))
(define-fun .def_1319 () Bool (not call__DRAGON_.g05))
(define-fun .def_1322 () Bool (or .def_1319 .def_1321))
(define-fun .def_1315 () Bool (= call__DRAGON_.ite23 0))
(define-fun .def_1313 () Bool (not call__DRAGON_.g04))
(define-fun .def_1316 () Bool (or .def_1313 .def_1315))
(define-fun .def_1308 () Bool (= call__DRAGON_.ite3 0))
(define-fun .def_1305 () Bool (not call__DRAGON_.g02))
(define-fun .def_1309 () Bool (or .def_1305 .def_1308))
(define-fun .def_1303 () Bool (= call__DRAGON_.ite32 0))
(define-fun .def_1306 () Bool (or .def_1303 .def_1305))
(define-fun .def_1310 () Bool (and .def_1306 .def_1309))
(define-fun .def_1300 () Bool (= call__DRAGON_.flby6 call__DRAGON_.mem_init))
(define-fun .def_1296 () Bool (= call__DRAGON_.flby5 0))
(define-fun .def_1291 () Bool (= call__DRAGON_.ite53 call__DRAGON_.ite54))
(define-fun .def_1292 () Bool (or .def_1287 .def_1291))
(define-fun .def_1285 () Bool (= call__DRAGON_.ite6 call__DRAGON_.ite7))
(define-fun .def_1288 () Bool (or .def_1285 .def_1287))
(define-fun .def_1293 () Bool (and .def_1288 .def_1292))
(define-fun .def_1278 () Bool (= call__DRAGON_.ite26 call__DRAGON_.ite27))
(define-fun .def_1281 () Bool (or .def_1278 .def_1280))
(define-fun .def_1271 () Bool (= call__DRAGON_.ite16 call__DRAGON_.ite17))
(define-fun .def_1274 () Bool (or .def_1271 .def_1273))
(define-fun .def_1265 () Bool (= call__DRAGON_.ite38 call__DRAGON_.ite39))
(define-fun .def_1268 () Bool (or .def_1265 .def_1267))
(define-fun .def_1275 () Bool (and .def_1268 .def_1274))
(define-fun .def_1282 () Bool (and .def_1275 .def_1281))
(define-fun .def_1294 () Bool (and .def_1282 .def_1293))
(define-fun .def_1297 () Bool (and .def_1294 .def_1296))
(define-fun .def_1301 () Bool (and .def_1297 .def_1300))
(define-fun .def_1311 () Bool (and .def_1301 .def_1310))
(define-fun .def_1317 () Bool (and .def_1311 .def_1316))
(define-fun .def_1323 () Bool (and .def_1317 .def_1322))
(define-fun .def_1329 () Bool (and .def_1323 .def_1328))
(define-fun .def_1343 () Bool (and .def_1329 .def_1342))
(define-fun .def_1347 () Bool (and .def_1343 .def_1346))
(define-fun .def_1350 () Bool (and .def_1347 .def_1349))
(define-fun .def_1353 () Bool (and .def_1350 .def_1352))
(define-fun .def_1356 () Bool (and .def_1353 .def_1355))
(define-fun .def_1363 () Bool (and .def_1356 .def_1362))
(define-fun .def_1366 () Bool (and .def_1363 .def_1365))
(define-fun .def_1737 () Bool (and .def_1366 .def_1736))
(assert .def_1737)
